70
2 0 1
3 0 1
4 3 1
5 1 1
5 3 1
5 4 1
6 0 1
6 3 1
6 4 1
7 0 1
7 3 1
7 5 1
8 2 1
8 3 1
8 4 1
8 5 1
8 6 1
9 0 1
9 1 1
9 3 1
9 5 1
9 8 1
10 1 1
10 3 1
10 5 1
10 7 1
11 2 1
11 4 1
11 10 1
12 0 1
12 1 1
12 2 1
12 3 1
12 6 1
12 8 1
12 9 1
12 10 1
12 11 1
13 0 1
13 1 1
13 2 1
13 5 1
13 8 1
13 11 1
13 12 1
14 3 1
14 4 1
14 9 1
14 10 1
15 2 1
15 3 1
15 5 1
15 6 1
15 10 1
15 11 1
16 1 1
16 2 1
16 4 1
16 5 1
16 9 1
16 10 1
16 12 1
16 13 1
16 15 1
17 0 1
17 2 1
17 3 1
17 6 1
17 7 1
17 8 1
17 9 1
17 12 1
17 13 1
18 0 1
18 5 1
18 14 1
18 16 1
19 0 1
19 4 1
19 6 1
19 8 1
19 9 1
19 10 1
19 11 1
19 18 1
20 0 1
20 1 1
20 5 1
20 6 1
20 7 1
20 9 1
20 10 1
20 11 1
20 12 1
20 14 1
20 16 1
20 19 1
21 2 1
21 6 1
21 7 1
21 8 1
21 9 1
21 11 1
21 14 1
21 17 1
21 20 1
22 3 1
22 12 1
22 15 1
22 16 1
22 20 1
23 3 1
23 4 1
23 6 1
23 8 1
23 10 1
23 11 1
23 12 1
23 13 1
23 14 1
23 18 1
23 20 1
23 21 1
23 22 1
24 2 1
24 4 1
24 5 1
24 8 1
24 11 1
24 12 1
24 18 1
24 19 1
24 20 1
24 21 1
24 22 1
24 23 1
25 2 1
25 3 1
25 7 1
25 9 1
25 10 1
25 13 1
25 14 1
25 16 1
25 20 1
25 22 1
25 23 1
25 24 1
26 0 1
26 2 1
26 3 1
26 5 1
26 6 1
26 7 1
26 8 1
26 10 1
26 14 1
26 16 1
26 17 1
26 21 1
26 23 1
27 1 1
27 4 1
27 5 1
27 6 1
27 8 1
27 9 1
27 10 1
27 11 1
27 12 1
27 14 1
27 15 1
27 18 1
27 20 1
27 21 1
27 22 1
27 25 1
28 0 1
28 1 1
28 2 1
28 4 1
28 5 1
28 8 1
28 9 1
28 10 1
28 14 1
28 20 1
28 21 1
28 22 1
28 23 1
28 24 1
29 2 1
29 4 1
29 6 1
29 7 1
29 8 1
29 10 1
29 11 1
29 12 1
29 13 1
29 14 1
29 15 1
29 16 1
29 17 1
29 18 1
29 19 1
29 22 1
29 28 1
30 0 1
30 2 1
30 4 1
30 9 1
30 10 1
30 12 1
30 13 1
30 14 1
30 15 1
30 17 1
30 18 1
30 20 1
30 21 1
30 22 1
30 23 1
30 25 1
30 28 1
30 29 1
31 1 1
31 2 1
31 3 1
31 4 1
31 5 1
31 6 1
31 7 1
31 8 1
31 10 1
31 11 1
31 12 1
31 13 1
31 15 1
31 16 1
31 17 1
31 18 1
31 20 1
31 21 1
31 23 1
31 26 1
32 1 1
32 3 1
32 4 1
32 5 1
32 6 1
32 10 1
32 13 1
32 14 1
32 17 1
32 19 1
32 21 1
32 23 1
32 27 1
32 29 1
32 30 1
33 0 1
33 2 1
33 3 1
33 4 1
33 7 1
33 10 1
33 11 1
33 14 1
33 18 1
33 19 1
33 22 1
33 23 1
33 24 1
33 25 1
33 27 1
33 28 1
33 29 1
33 30 1
34 1 1
34 3 1
34 4 1
34 5 1
34 6 1
34 7 1
34 8 1
34 9 1
34 10 1
34 12 1
34 16 1
34 18 1
34 19 1
34 20 1
34 23 1
34 24 1
34 26 1
34 29 1
34 30 1
34 33 1
35 0 1
35 2 1
35 4 1
35 5 1
35 6 1
35 7 1
35 8 1
35 9 1
35 10 1
35 13 1
35 14 1
35 15 1
35 16 1
35 17 1
35 18 1
35 19 1
35 22 1
35 23 1
35 25 1
35 26 1
35 30 1
36 0 1
36 2 1
36 3 1
36 4 1
36 7 1
36 8 1
36 9 1
36 10 1
36 11 1
36 12 1
36 13 1
36 14 1
36 15 1
36 17 1
36 21 1
36 22 1
36 30 1
36 32 1
36 33 1
36 35 1
37 0 1
37 2 1
37 3 1
37 4 1
37 5 1
37 6 1
37 7 1
37 8 1
37 11 1
37 12 1
37 13 1
37 14 1
37 16 1
37 20 1
37 21 1
37 23 1
37 25 1
37 27 1
37 28 1
37 29 1
37 33 1
37 34 1
37 35 1
38 0 1
38 2 1
38 3 1
38 4 1
38 6 1
38 7 1
38 9 1
38 11 1
38 12 1
38 15 1
38 16 1
38 18 1
38 19 1
38 21 1
38 22 1
38 24 1
38 28 1
38 29 1
38 31 1
38 32 1
38 34 1
38 36 1
39 0 1
39 1 1
39 3 1
39 4 1
39 5 1
39 6 1
39 8 1
39 9 1
39 10 1
39 11 1
39 12 1
39 13 1
39 15 1
39 16 1
39 20 1
39 21 1
39 22 1
39 27 1
39 29 1
39 35 1
39 38 1
40 1 1
40 2 1
40 6 1
40 7 1
40 8 1
40 9 1
40 10 1
40 11 1
40 14 1
40 17 1
40 18 1
40 22 1
40 24 1
40 26 1
40 27 1
40 28 1
40 30 1
40 32 1
40 33 1
40 37 1
40 38 1
40 39 1
41 0 1
41 1 1
41 5 1
41 6 1
41 7 1
41 9 1
41 13 1
41 14 1
41 15 1
41 16 1
41 17 1
41 19 1
41 22 1
41 26 1
41 27 1
41 28 1
41 29 1
41 36 1
41 39 1
41 40 1
42 2 1
42 3 1
42 4 1
42 7 1
42 9 1
42 10 1
42 11 1
42 14 1
42 15 1
42 16 1
42 18 1
42 19 1
42 20 1
42 23 1
42 31 1
42 32 1
42 33 1
42 34 1
42 39 1
43 0 1
43 1 1
43 3 1
43 6 1
43 7 1
43 8 1
43 10 1
43 11 1
43 12 1
43 15 1
43 16 1
43 18 1
43 21 1
43 23 1
43 24 1
43 28 1
43 34 1
43 35 1
43 37 1
44 0 1
44 2 1
44 4 1
44 5 1
44 7 1
44 10 1
44 11 1
44 15 1
44 16 1
44 18 1
44 20 1
44 22 1
44 28 1
44 29 1
44 30 1
44 33 1
44 34 1
44 36 1
44 38 1
44 41 1
45 0 1
45 2 1
45 4 1
45 5 1
45 10 1
45 12 1
45 20 1
45 23 1
45 27 1
45 28 1
45 29 1
45 32 1
45 34 1
45 35 1
45 37 1
45 38 1
45 41 1
46 0 1
46 2 1
46 4 1
46 6 1
46 7 1
46 8 1
46 9 1
46 10 1
46 11 1
46 12 1
46 15 1
46 16 1
46 21 1
46 24 1
46 27 1
46 29 1
46 31 1
46 35 1
46 36 1
46 38 1
46 39 1
46 41 1
46 42 1
46 43 1
47 0 1
47 1 1
47 2 1
47 3 1
47 4 1
47 5 1
47 6 1
47 7 1
47 8 1
47 10 1
47 14 1
47 16 1
47 22 1
47 24 1
47 25 1
47 26 1
47 28 1
47 30 1
47 33 1
47 35 1
47 37 1
47 40 1
47 41 1
47 42 1
47 44 1
48 3 1
48 8 1
48 9 1
48 12 1
48 21 1
48 22 1
48 24 1
48 27 1
48 28 1
48 33 1
48 35 1
48 36 1
48 37 1
48 38 1
48 41 1
48 42 1
48 46 1
48 47 1
49 0 1
49 1 1
49 2 1
49 5 1
49 6 1
49 8 1
49 11 1
49 12 1
49 14 1
49 20 1
49 22 1
49 23 1
49 24 1
49 26 1
49 27 1
49 28 1
49 29 1
49 32 1
49 35 1
49 37 1
49 40 1
49 45 1
49 46 1
49 47 1
49 48 1
50 0 1
50 1 1
50 2 1
50 3 1
50 5 1
50 8 1
50 11 1
50 12 1
50 14 1
50 23 1
50 25 1
50 27 1
50 32 1
50 33 1
50 40 1
50 42 1
50 49 1
51 0 1
51 2 1
51 3 1
51 5 1
51 7 1
51 8 1
51 10 1
51 11 1
51 12 1
51 15 1
51 19 1
51 20 1
51 25 1
51 26 1
51 27 1
51 29 1
51 31 1
51 32 1
51 33 1
51 35 1
51 37 1
51 38 1
51 40 1
51 41 1
51 44 1
51 48 1
51 50 1
52 0 1
52 2 1
52 3 1
52 8 1
52 10 1
52 11 1
52 13 1
52 14 1
52 16 1
52 17 1
52 18 1
52 19 1
52 20 1
52 23 1
52 25 1
52 26 1
52 27 1
52 28 1
52 29 1
52 30 1
52 32 1
52 33 1
52 34 1
52 35 1
52 36 1
52 38 1
52 39 1
52 41 1
52 42 1
52 43 1
52 45 1
52 49 1
52 51 1
53 0 1
53 2 1
53 3 1
53 4 1
53 5 1
53 6 1
53 8 1
53 15 1
53 16 1
53 19 1
53 20 1
53 21 1
53 22 1
53 24 1
53 25 1
53 26 1
53 27 1
53 28 1
53 29 1
53 31 1
53 36 1
53 37 1
53 40 1
53 42 1
53 44 1
53 47 1
53 50 1
53 51 1
53 52 1
54 0 1
54 4 1
54 11 1
54 13 1
54 15 1
54 17 1
54 18 1
54 19 1
54 21 1
54 22 1
54 23 1
54 25 1
54 28 1
54 30 1
54 32 1
54 33 1
54 36 1
54 41 1
54 43 1
54 44 1
54 45 1
54 46 1
54 47 1
54 49 1
54 50 1
54 52 1
54 53 1
55 0 1
55 4 1
55 6 1
55 7 1
55 9 1
55 10 1
55 13 1
55 14 1
55 15 1
55 17 1
55 18 1
55 21 1
55 22 1
55 24 1
55 28 1
55 29 1
55 32 1
55 33 1
55 34 1
55 38 1
55 41 1
55 44 1
55 46 1
55 52 1
55 53 1
56 0 1
56 1 1
56 4 1
56 5 1
56 7 1
56 8 1
56 12 1
56 13 1
56 18 1
56 19 1
56 20 1
56 21 1
56 22 1
56 25 1
56 29 1
56 30 1
56 31 1
56 33 1
56 35 1
56 37 1
56 38 1
56 41 1
56 42 1
56 43 1
56 44 1
56 45 1
56 47 1
56 49 1
56 53 1
56 54 1
56 55 1
57 2 1
57 3 1
57 5 1
57 6 1
57 8 1
57 9 1
57 10 1
57 14 1
57 15 1
57 18 1
57 20 1
57 22 1
57 24 1
57 28 1
57 29 1
57 34 1
57 38 1
57 41 1
57 43 1
57 44 1
57 45 1
57 48 1
57 50 1
57 52 1
57 53 1
57 54 1
58 1 1
58 2 1
58 5 1
58 6 1
58 8 1
58 10 1
58 12 1
58 16 1
58 17 1
58 20 1
58 21 1
58 23 1
58 24 1
58 26 1
58 27 1
58 28 1
58 29 1
58 30 1
58 32 1
58 33 1
58 34 1
58 35 1
58 36 1
58 37 1
58 40 1
58 43 1
58 45 1
58 46 1
58 51 1
58 53 1
59 0 1
59 1 1
59 5 1
59 17 1
59 18 1
59 20 1
59 23 1
59 26 1
59 27 1
59 28 1
59 29 1
59 30 1
59 31 1
59 33 1
59 36 1
59 38 1
59 39 1
59 40 1
59 42 1
59 45 1
59 47 1
59 52 1
59 53 1
59 54 1
59 55 1
59 56 1
59 57 1
60 2 1
60 3 1
60 6 1
60 7 1
60 8 1
60 9 1
60 10 1
60 12 1
60 13 1
60 16 1
60 17 1
60 23 1
60 24 1
60 25 1
60 27 1
60 30 1
60 31 1
60 32 1
60 33 1
60 35 1
60 37 1
60 39 1
60 41 1
60 44 1
60 45 1
60 46 1
60 48 1
60 50 1
60 52 1
60 53 1
60 55 1
60 56 1
60 57 1
61 1 1
61 2 1
61 4 1
61 8 1
61 9 1
61 10 1
61 14 1
61 15 1
61 18 1
61 20 1
61 21 1
61 22 1
61 24 1
61 27 1
61 29 1
61 32 1
61 36 1
61 37 1
61 39 1
61 40 1
61 41 1
61 43 1
61 45 1
61 46 1
61 47 1
61 48 1
61 49 1
61 50 1
61 51 1
61 52 1
61 53 1
61 55 1
61 58 1
61 59 1
62 0 1
62 1 1
62 2 1
62 3 1
62 4 1
62 7 1
62 8 1
62 9 1
62 10 1
62 13 1
62 14 1
62 15 1
62 16 1
62 18 1
62 19 1
62 21 1
62 26 1
62 27 1
62 28 1
62 30 1
62 31 1
62 32 1
62 33 1
62 37 1
62 39 1
62 40 1
62 42 1
62 43 1
62 45 1
62 48 1
62 49 1
62 50 1
62 51 1
62 53 1
62 54 1
62 56 1
62 59 1
62 60 1
62 61 1
63 0 1
63 1 1
63 2 1
63 10 1
63 11 1
63 12 1
63 14 1
63 15 1
63 16 1
63 17 1
63 19 1
63 21 1
63 23 1
63 25 1
63 26 1
63 29 1
63 32 1
63 34 1
63 35 1
63 36 1
63 46 1
63 48 1
63 50 1
63 51 1
63 55 1
63 58 1
63 60 1
63 61 1
63 62 1
64 1 1
64 2 1
64 4 1
64 8 1
64 11 1
64 13 1
64 14 1
64 15 1
64 16 1
64 17 1
64 18 1
64 19 1
64 20 1
64 21 1
64 23 1
64 24 1
64 25 1
64 26 1
64 27 1
64 29 1
64 31 1
64 33 1
64 34 1
64 36 1
64 39 1
64 40 1
64 42 1
64 43 1
64 44 1
64 46 1
64 49 1
64 55 1
64 56 1
64 58 1
64 59 1
64 60 1
64 62 1
65 0 1
65 2 1
65 3 1
65 4 1
65 5 1
65 9 1
65 10 1
65 11 1
65 12 1
65 13 1
65 15 1
65 16 1
65 17 1
65 18 1
65 19 1
65 24 1
65 25 1
65 27 1
65 30 1
65 31 1
65 32 1
65 33 1
65 37 1
65 39 1
65 42 1
65 43 1
65 44 1
65 45 1
65 47 1
65 48 1
65 50 1
65 52 1
65 53 1
65 56 1
65 58 1
65 59 1
65 60 1
65 62 1
65 63 1
66 0 1
66 1 1
66 2 1
66 3 1
66 4 1
66 5 1
66 8 1
66 10 1
66 13 1
66 17 1
66 19 1
66 21 1
66 30 1
66 31 1
66 38 1
66 39 1
66 43 1
66 45 1
66 46 1
66 47 1
66 50 1
66 51 1
66 52 1
66 53 1
66 56 1
66 61 1
66 62 1
66 64 1
66 65 1
67 1 1
67 4 1
67 7 1
67 8 1
67 11 1
67 13 1
67 16 1
67 23 1
67 24 1
67 25 1
67 26 1
67 27 1
67 28 1
67 29 1
67 30 1
67 33 1
67 34 1
67 35 1
67 37 1
67 38 1
67 43 1
67 45 1
67 49 1
67 53 1
67 54 1
67 55 1
67 56 1
67 58 1
67 60 1
67 65 1
67 66 1
68 0 1
68 1 1
68 2 1
68 4 1
68 5 1
68 6 1
68 7 1
68 8 1
68 9 1
68 10 1
68 11 1
68 14 1
68 16 1
68 17 1
68 21 1
68 23 1
68 25 1
68 28 1
68 31 1
68 32 1
68 33 1
68 34 1
68 35 1
68 37 1
68 38 1
68 41 1
68 42 1
68 44 1
68 45 1
68 48 1
68 49 1
68 51 1
68 53 1
68 54 1
68 55 1
68 56 1
68 59 1
68 60 1
68 63 1
68 66 1
68 67 1
69 2 1
69 4 1
69 5 1
69 6 1
69 8 1
69 9 1
69 16 1
69 17 1
69 20 1
69 21 1
69 23 1
69 24 1
69 26 1
69 27 1
69 29 1
69 30 1
69 31 1
69 33 1
69 34 1
69 35 1
69 36 1
69 37 1
69 38 1
69 39 1
69 40 1
69 43 1
69 45 1
69 46 1
69 49 1
69 52 1
69 53 1
69 54 1
69 55 1
69 58 1
69 59 1
69 60 1
69 66 1
69 68 1
